com.javasolver.samples/LP/com.javasolver.samples.BlendingProblem_2b21fa0d-118b-418a-8ad1-7e9b14e681bd.sol
solution status: optimal solution found
objective value:                              -323200
Vi10                                              625 	(obj:0)
Vi9                                               175 	(obj:0)
Vi7                                              3300 	(obj:0)
Vi6                                               950 	(obj:0)
Vi5                                               500 	(obj:0)
Vi4                                              3300 	(obj:0)
Vi3                                               950 	(obj:0)
Vi2                                               500 	(obj:0)
Vi1                                              1650 	(obj:0)
Vi0                                              2850 	(obj:0)
Vi12                                           323200 	(obj:-1)
